(set-info :smt-lib-version 2.6)
(set-logic UF)
(set-info :source |Benchmarks from the paper: "Extending Sledgehammer with SMT Solvers" by Jasmin Blanchette, Sascha Bohme, and Lawrence C. Paulson, CADE 2011.  Translated to SMT2 by Andrew Reynolds and Morgan Deters.|)
(set-info :category "industrial")
(set-info :status unknown)
(declare-sort S1 0)
(declare-sort S2 0)
(declare-sort S3 0)
(declare-sort S4 0)
(declare-sort S5 0)
(declare-sort S6 0)
(declare-sort S7 0)
(declare-sort S8 0)
(declare-sort S9 0)
(declare-sort S10 0)
(declare-sort S11 0)
(declare-sort S12 0)
(declare-sort S13 0)
(declare-sort S14 0)
(declare-sort S15 0)
(declare-sort S16 0)
(declare-sort S17 0)
(declare-sort S18 0)
(declare-sort S19 0)
(declare-sort S20 0)
(declare-sort S21 0)
(declare-sort S22 0)
(declare-sort S23 0)
(declare-sort S24 0)
(declare-sort S25 0)
(declare-sort S26 0)
(declare-sort S27 0)
(declare-sort S28 0)
(declare-sort S29 0)
(declare-sort S30 0)
(declare-sort S31 0)
(declare-sort S32 0)
(declare-sort S33 0)
(declare-sort S34 0)
(declare-sort S35 0)
(declare-sort S36 0)
(declare-sort S37 0)
(declare-sort S38 0)
(declare-sort S39 0)
(declare-sort S40 0)
(declare-sort S41 0)
(declare-sort S42 0)
(declare-sort S43 0)
(declare-sort S44 0)
(declare-sort S45 0)
(declare-sort S46 0)
(declare-sort S47 0)
(declare-sort S48 0)
(declare-sort S49 0)
(declare-sort S50 0)
(declare-sort S51 0)
(declare-sort S52 0)
(declare-sort S53 0)
(declare-sort S54 0)
(declare-sort S55 0)
(declare-sort S56 0)
(declare-sort S57 0)
(declare-sort S58 0)
(declare-sort S59 0)
(declare-sort S60 0)
(declare-sort S61 0)
(declare-sort S62 0)
(declare-sort S63 0)
(declare-sort S64 0)
(declare-sort S65 0)
(declare-sort S66 0)
(declare-sort S67 0)
(declare-sort S68 0)
(declare-sort S69 0)
(declare-sort S70 0)
(declare-sort S71 0)
(declare-sort S72 0)
(declare-sort S73 0)
(declare-sort S74 0)
(declare-sort S75 0)
(declare-sort S76 0)
(declare-sort S77 0)
(declare-sort S78 0)
(declare-sort S79 0)
(declare-sort S80 0)
(declare-sort S81 0)
(declare-sort S82 0)
(declare-sort S83 0)
(declare-sort S84 0)
(declare-sort S85 0)
(declare-sort S86 0)
(declare-sort S87 0)
(declare-sort S88 0)
(declare-sort S89 0)
(declare-sort S90 0)
(declare-sort S91 0)
(declare-sort S92 0)
(declare-sort S93 0)
(declare-sort S94 0)
(declare-sort S95 0)
(declare-sort S96 0)
(declare-sort S97 0)
(declare-sort S98 0)
(declare-sort S99 0)
(declare-sort S100 0)
(declare-sort S101 0)
(declare-sort S102 0)
(declare-sort S103 0)
(declare-fun f1 () S1)
(declare-fun f2 () S1)
(declare-fun f3 (S3 S4) S1)
(declare-fun f4 (S5) S4)
(declare-fun f5 () S5)
(declare-fun f6 (S6 S7) S1)
(declare-fun f7 (S8 S3) S6)
(declare-fun f8 () S8)
(declare-fun f9 (S9 S7) S7)
(declare-fun f10 (S10 S2) S9)
(declare-fun f11 () S10)
(declare-fun f12 () S7)
(declare-fun f13 (S11 S12) S6)
(declare-fun f14 (S8) S11)
(declare-fun f15 (S13 S5) S12)
(declare-fun f16 () S13)
(declare-fun f17 (S14 S5) S15)
(declare-fun f18 () S14)
(declare-fun f19 () S15)
(declare-fun f20 (S16 S17) S1)
(declare-fun f21 (S15) S17)
(declare-fun f22 (S18 S15) S15)
(declare-fun f23 (S19 S16) S18)
(declare-fun f24 () S19)
(declare-fun f25 (S20 S22) S1)
(declare-fun f26 (S21) S22)
(declare-fun f27 (S23 S21) S21)
(declare-fun f28 (S24 S20) S23)
(declare-fun f29 () S24)
(declare-fun f30 (S15 S26) S1)
(declare-fun f31 (S25) S26)
(declare-fun f32 (S27 S25) S25)
(declare-fun f33 (S28 S15) S27)
(declare-fun f34 () S28)
(declare-fun f35 (S2 S29) S1)
(declare-fun f36 (S7) S29)
(declare-fun f37 (S30 S31) S1)
(declare-fun f38 (S20) S31)
(declare-fun f39 (S32 S20) S20)
(declare-fun f40 (S33 S30) S32)
(declare-fun f41 () S33)
(declare-fun f42 (S34 S35) S1)
(declare-fun f43 (S30) S35)
(declare-fun f44 (S36 S30) S30)
(declare-fun f45 (S37 S34) S36)
(declare-fun f46 () S37)
(declare-fun f47 (S38 S40) S1)
(declare-fun f48 (S39) S40)
(declare-fun f49 (S41 S39) S39)
(declare-fun f50 (S42 S38) S41)
(declare-fun f51 () S42)
(declare-fun f52 (S43 S5) S5)
(declare-fun f53 (S44 S3) S43)
(declare-fun f54 () S44)
(declare-fun f55 (S12 S46) S1)
(declare-fun f56 (S45) S46)
(declare-fun f57 (S47 S45) S45)
(declare-fun f58 (S48 S12) S47)
(declare-fun f59 () S48)
(declare-fun f60 (S49 S3) S2)
(declare-fun f61 () S49)
(declare-fun f62 () S2)
(declare-fun f63 () S19)
(declare-fun f64 () S24)
(declare-fun f65 () S28)
(declare-fun f66 () S10)
(declare-fun f67 () S33)
(declare-fun f68 () S37)
(declare-fun f69 () S42)
(declare-fun f70 () S44)
(declare-fun f71 () S48)
(declare-fun f72 () S18)
(declare-fun f73 () S23)
(declare-fun f74 () S27)
(declare-fun f75 () S9)
(declare-fun f76 () S32)
(declare-fun f77 () S36)
(declare-fun f78 () S41)
(declare-fun f79 () S43)
(declare-fun f80 () S47)
(declare-fun f81 () S49)
(declare-fun f82 () S43)
(declare-fun f83 () S45)
(declare-fun f84 () S5)
(declare-fun f85 () S39)
(declare-fun f86 () S7)
(declare-fun f87 () S21)
(declare-fun f88 () S25)
(declare-fun f89 () S30)
(declare-fun f90 () S20)
(declare-fun f91 (S50 S21) S23)
(declare-fun f92 () S50)
(declare-fun f93 (S51 S25) S27)
(declare-fun f94 () S51)
(declare-fun f95 (S52 S45) S47)
(declare-fun f96 () S52)
(declare-fun f97 (S53 S5) S43)
(declare-fun f98 () S53)
(declare-fun f99 (S54 S39) S41)
(declare-fun f100 () S54)
(declare-fun f101 (S55 S7) S9)
(declare-fun f102 () S55)
(declare-fun f103 (S56 S15) S18)
(declare-fun f104 () S56)
(declare-fun f105 (S57 S30) S36)
(declare-fun f106 () S57)
(declare-fun f107 (S58 S20) S32)
(declare-fun f108 () S58)
(declare-fun f109 (S59 S21) S1)
(declare-fun f110 (S60 S25) S1)
(declare-fun f111 (S61 S45) S1)
(declare-fun f112 (S62 S5) S1)
(declare-fun f113 (S63 S39) S1)
(declare-fun f114 (S26 S15) S1)
(declare-fun f115 (S31 S30) S1)
(declare-fun f116 (S22 S20) S1)
(declare-fun f117 (S64 S3) S3)
(declare-fun f118 () S64)
(declare-fun f119 () S38)
(declare-fun f120 (S7) S1)
(declare-fun f121 (S21) S1)
(declare-fun f122 (S25) S1)
(declare-fun f123 (S45) S1)
(declare-fun f124 (S5) S1)
(declare-fun f125 (S39) S1)
(declare-fun f126 (S15) S1)
(declare-fun f127 (S30) S1)
(declare-fun f128 (S20) S1)
(declare-fun f129 (S65 S45) S12)
(declare-fun f130 () S65)
(declare-fun f131 (S20) S22)
(declare-fun f132 (S30) S31)
(declare-fun f133 (S15) S26)
(declare-fun f134 () S65)
(declare-fun f135 (S66 S40) S20)
(declare-fun f136 (S67 S20) S66)
(declare-fun f137 () S67)
(declare-fun f138 (S68 S40) S30)
(declare-fun f139 (S69 S30) S68)
(declare-fun f140 () S69)
(declare-fun f141 (S70 S40) S15)
(declare-fun f142 (S71 S15) S70)
(declare-fun f143 () S71)
(declare-fun f144 (S72 S40) S7)
(declare-fun f145 (S73 S7) S72)
(declare-fun f146 () S73)
(declare-fun f147 (S75 S74) S15)
(declare-fun f148 (S76 S7) S75)
(declare-fun f149 () S76)
(declare-fun f150 () S65)
(declare-fun f151 (S77 S5) S3)
(declare-fun f152 () S77)
(declare-fun f153 (S78 S39) S38)
(declare-fun f154 () S78)
(declare-fun f155 (S79 S20) S30)
(declare-fun f156 () S79)
(declare-fun f157 (S80 S30) S34)
(declare-fun f158 () S80)
(declare-fun f159 (S81 S15) S16)
(declare-fun f160 () S81)
(declare-fun f161 (S82 S7) S2)
(declare-fun f162 () S82)
(declare-fun f163 (S83 S40) S45)
(declare-fun f164 (S84 S45) S83)
(declare-fun f165 () S84)
(declare-fun f166 (S85 S40) S5)
(declare-fun f167 (S86 S5) S85)
(declare-fun f168 () S86)
(declare-fun f169 (S87 S40) S39)
(declare-fun f170 (S88 S39) S87)
(declare-fun f171 () S88)
(declare-fun f172 (S90 S89) S91)
(declare-fun f173 () S90)
(declare-fun f174 (S91 S20) S38)
(declare-fun f175 (S93 S92) S89)
(declare-fun f176 () S93)
(declare-fun f177 (S89 S30) S38)
(declare-fun f178 (S95 S94) S96)
(declare-fun f179 () S95)
(declare-fun f180 (S96 S15) S38)
(declare-fun f181 (S97 S38) S98)
(declare-fun f182 () S97)
(declare-fun f183 (S98 S30) S20)
(declare-fun f184 (S99 S38) S100)
(declare-fun f185 () S99)
(declare-fun f186 (S100 S20) S21)
(declare-fun f187 (S101 S38) S102)
(declare-fun f188 () S101)
(declare-fun f189 (S102 S15) S25)
(declare-fun f190 (S103 S7) S82)
(declare-fun f191 () S103)
(assert (not (= f1 f2)))
(assert (not (exists ((?v0 S2)) (forall ((?v1 S3)) (=> (= (f3 ?v1 (f4 f5)) f1) (= (f6 (f7 f8 ?v1) (f9 (f10 f11 ?v0) f12)) f1))))))
(assert (= (f6 (f13 (f14 f8) (f15 f16 f5)) f12) f1))
(assert (= (f17 f18 f5) f19))
(assert (forall ((?v0 S16) (?v1 S16) (?v2 S15)) (=> (= (f20 ?v0 (f21 (f22 (f23 f24 ?v1) ?v2))) f1) (or (= ?v0 ?v1) (= (f20 ?v0 (f21 ?v2)) f1)))))
(assert (forall ((?v0 S20) (?v1 S20) (?v2 S21)) (=> (= (f25 ?v0 (f26 (f27 (f28 f29 ?v1) ?v2))) f1) (or (= ?v0 ?v1) (= (f25 ?v0 (f26 ?v2)) f1)))))
(assert (forall ((?v0 S15) (?v1 S15) (?v2 S25)) (=> (= (f30 ?v0 (f31 (f32 (f33 f34 ?v1) ?v2))) f1) (or (= ?v0 ?v1) (= (f30 ?v0 (f31 ?v2)) f1)))))
(assert (forall ((?v0 S2) (?v1 S2) (?v2 S7)) (=> (= (f35 ?v0 (f36 (f9 (f10 f11 ?v1) ?v2))) f1) (or (= ?v0 ?v1) (= (f35 ?v0 (f36 ?v2)) f1)))))
(assert (forall ((?v0 S30) (?v1 S30) (?v2 S20)) (=> (= (f37 ?v0 (f38 (f39 (f40 f41 ?v1) ?v2))) f1) (or (= ?v0 ?v1) (= (f37 ?v0 (f38 ?v2)) f1)))))
(assert (forall ((?v0 S34) (?v1 S34) (?v2 S30)) (=> (= (f42 ?v0 (f43 (f44 (f45 f46 ?v1) ?v2))) f1) (or (= ?v0 ?v1) (= (f42 ?v0 (f43 ?v2)) f1)))))
(assert (forall ((?v0 S38) (?v1 S38) (?v2 S39)) (=> (= (f47 ?v0 (f48 (f49 (f50 f51 ?v1) ?v2))) f1) (or (= ?v0 ?v1) (= (f47 ?v0 (f48 ?v2)) f1)))))
(assert (forall ((?v0 S3) (?v1 S3) (?v2 S5)) (=> (= (f3 ?v0 (f4 (f52 (f53 f54 ?v1) ?v2))) f1) (or (= ?v0 ?v1) (= (f3 ?v0 (f4 ?v2)) f1)))))
(assert (forall ((?v0 S12) (?v1 S12) (?v2 S45)) (=> (= (f55 ?v0 (f56 (f57 (f58 f59 ?v1) ?v2))) f1) (or (= ?v0 ?v1) (= (f55 ?v0 (f56 ?v2)) f1)))))
(assert (forall ((?v0 S3)) (=> (= (f3 ?v0 (f4 f5)) f1) (not (= (f60 f61 ?v0) f62)))))
(assert (forall ((?v0 S21) (?v1 S20)) (not (= ?v0 (f27 (f28 f29 ?v1) ?v0)))))
(assert (forall ((?v0 S25) (?v1 S15)) (not (= ?v0 (f32 (f33 f34 ?v1) ?v0)))))
(assert (forall ((?v0 S15) (?v1 S16)) (not (= ?v0 (f22 (f23 f24 ?v1) ?v0)))))
(assert (forall ((?v0 S45) (?v1 S12)) (not (= ?v0 (f57 (f58 f59 ?v1) ?v0)))))
(assert (forall ((?v0 S5) (?v1 S3)) (not (= ?v0 (f52 (f53 f54 ?v1) ?v0)))))
(assert (forall ((?v0 S39) (?v1 S38)) (not (= ?v0 (f49 (f50 f51 ?v1) ?v0)))))
(assert (forall ((?v0 S7) (?v1 S2)) (not (= ?v0 (f9 (f10 f11 ?v1) ?v0)))))
(assert (forall ((?v0 S20) (?v1 S30)) (not (= ?v0 (f39 (f40 f41 ?v1) ?v0)))))
(assert (forall ((?v0 S30) (?v1 S34)) (not (= ?v0 (f44 (f45 f46 ?v1) ?v0)))))
(assert (forall ((?v0 S20) (?v1 S21)) (not (= (f27 (f28 f29 ?v0) ?v1) ?v1))))
(assert (forall ((?v0 S15) (?v1 S25)) (not (= (f32 (f33 f34 ?v0) ?v1) ?v1))))
(assert (forall ((?v0 S16) (?v1 S15)) (not (= (f22 (f23 f24 ?v0) ?v1) ?v1))))
(assert (forall ((?v0 S12) (?v1 S45)) (not (= (f57 (f58 f59 ?v0) ?v1) ?v1))))
(assert (forall ((?v0 S3) (?v1 S5)) (not (= (f52 (f53 f54 ?v0) ?v1) ?v1))))
(assert (forall ((?v0 S38) (?v1 S39)) (not (= (f49 (f50 f51 ?v0) ?v1) ?v1))))
(assert (forall ((?v0 S2) (?v1 S7)) (not (= (f9 (f10 f11 ?v0) ?v1) ?v1))))
(assert (forall ((?v0 S30) (?v1 S20)) (not (= (f39 (f40 f41 ?v0) ?v1) ?v1))))
(assert (forall ((?v0 S34) (?v1 S30)) (not (= (f44 (f45 f46 ?v0) ?v1) ?v1))))
(assert (forall ((?v0 S20) (?v1 S21) (?v2 S20) (?v3 S21)) (= (= (f27 (f28 f29 ?v0) ?v1) (f27 (f28 f29 ?v2) ?v3)) (and (= ?v0 ?v2) (= ?v1 ?v3)))))
(assert (forall ((?v0 S15) (?v1 S25) (?v2 S15) (?v3 S25)) (= (= (f32 (f33 f34 ?v0) ?v1) (f32 (f33 f34 ?v2) ?v3)) (and (= ?v0 ?v2) (= ?v1 ?v3)))))
(assert (forall ((?v0 S16) (?v1 S15) (?v2 S16) (?v3 S15)) (= (= (f22 (f23 f24 ?v0) ?v1) (f22 (f23 f24 ?v2) ?v3)) (and (= ?v0 ?v2) (= ?v1 ?v3)))))
(assert (forall ((?v0 S12) (?v1 S45) (?v2 S12) (?v3 S45)) (= (= (f57 (f58 f59 ?v0) ?v1) (f57 (f58 f59 ?v2) ?v3)) (and (= ?v0 ?v2) (= ?v1 ?v3)))))
(assert (forall ((?v0 S3) (?v1 S5) (?v2 S3) (?v3 S5)) (= (= (f52 (f53 f54 ?v0) ?v1) (f52 (f53 f54 ?v2) ?v3)) (and (= ?v0 ?v2) (= ?v1 ?v3)))))
(assert (forall ((?v0 S38) (?v1 S39) (?v2 S38) (?v3 S39)) (= (= (f49 (f50 f51 ?v0) ?v1) (f49 (f50 f51 ?v2) ?v3)) (and (= ?v0 ?v2) (= ?v1 ?v3)))))
(assert (forall ((?v0 S2) (?v1 S7) (?v2 S2) (?v3 S7)) (= (= (f9 (f10 f11 ?v0) ?v1) (f9 (f10 f11 ?v2) ?v3)) (and (= ?v0 ?v2) (= ?v1 ?v3)))))
(assert (forall ((?v0 S30) (?v1 S20) (?v2 S30) (?v3 S20)) (= (= (f39 (f40 f41 ?v0) ?v1) (f39 (f40 f41 ?v2) ?v3)) (and (= ?v0 ?v2) (= ?v1 ?v3)))))
(assert (forall ((?v0 S34) (?v1 S30) (?v2 S34) (?v3 S30)) (= (= (f44 (f45 f46 ?v0) ?v1) (f44 (f45 f46 ?v2) ?v3)) (and (= ?v0 ?v2) (= ?v1 ?v3)))))
(assert (forall ((?v0 S16) (?v1 S15)) (= (f22 (f23 f63 ?v0) ?v1) (ite (= (f20 ?v0 (f21 ?v1)) f1) ?v1 (f22 (f23 f24 ?v0) ?v1)))))
(assert (forall ((?v0 S20) (?v1 S21)) (= (f27 (f28 f64 ?v0) ?v1) (ite (= (f25 ?v0 (f26 ?v1)) f1) ?v1 (f27 (f28 f29 ?v0) ?v1)))))
(assert (forall ((?v0 S15) (?v1 S25)) (= (f32 (f33 f65 ?v0) ?v1) (ite (= (f30 ?v0 (f31 ?v1)) f1) ?v1 (f32 (f33 f34 ?v0) ?v1)))))
(assert (forall ((?v0 S2) (?v1 S7)) (= (f9 (f10 f66 ?v0) ?v1) (ite (= (f35 ?v0 (f36 ?v1)) f1) ?v1 (f9 (f10 f11 ?v0) ?v1)))))
(assert (forall ((?v0 S30) (?v1 S20)) (= (f39 (f40 f67 ?v0) ?v1) (ite (= (f37 ?v0 (f38 ?v1)) f1) ?v1 (f39 (f40 f41 ?v0) ?v1)))))
(assert (forall ((?v0 S34) (?v1 S30)) (= (f44 (f45 f68 ?v0) ?v1) (ite (= (f42 ?v0 (f43 ?v1)) f1) ?v1 (f44 (f45 f46 ?v0) ?v1)))))
(assert (forall ((?v0 S38) (?v1 S39)) (= (f49 (f50 f69 ?v0) ?v1) (ite (= (f47 ?v0 (f48 ?v1)) f1) ?v1 (f49 (f50 f51 ?v0) ?v1)))))
(assert (forall ((?v0 S3) (?v1 S5)) (= (f52 (f53 f70 ?v0) ?v1) (ite (= (f3 ?v0 (f4 ?v1)) f1) ?v1 (f52 (f53 f54 ?v0) ?v1)))))
(assert (forall ((?v0 S12) (?v1 S45)) (= (f57 (f58 f71 ?v0) ?v1) (ite (= (f55 ?v0 (f56 ?v1)) f1) ?v1 (f57 (f58 f59 ?v0) ?v1)))))
(assert (forall ((?v0 S16) (?v1 S15)) (=> (not (= (f20 ?v0 (f21 ?v1)) f1)) (= (f22 (f23 f63 ?v0) ?v1) (f22 (f23 f24 ?v0) ?v1)))))
(assert (forall ((?v0 S20) (?v1 S21)) (=> (not (= (f25 ?v0 (f26 ?v1)) f1)) (= (f27 (f28 f64 ?v0) ?v1) (f27 (f28 f29 ?v0) ?v1)))))
(assert (forall ((?v0 S15) (?v1 S25)) (=> (not (= (f30 ?v0 (f31 ?v1)) f1)) (= (f32 (f33 f65 ?v0) ?v1) (f32 (f33 f34 ?v0) ?v1)))))
(assert (forall ((?v0 S2) (?v1 S7)) (=> (not (= (f35 ?v0 (f36 ?v1)) f1)) (= (f9 (f10 f66 ?v0) ?v1) (f9 (f10 f11 ?v0) ?v1)))))
(assert (forall ((?v0 S30) (?v1 S20)) (=> (not (= (f37 ?v0 (f38 ?v1)) f1)) (= (f39 (f40 f67 ?v0) ?v1) (f39 (f40 f41 ?v0) ?v1)))))
(assert (forall ((?v0 S34) (?v1 S30)) (=> (not (= (f42 ?v0 (f43 ?v1)) f1)) (= (f44 (f45 f68 ?v0) ?v1) (f44 (f45 f46 ?v0) ?v1)))))
(assert (forall ((?v0 S38) (?v1 S39)) (=> (not (= (f47 ?v0 (f48 ?v1)) f1)) (= (f49 (f50 f69 ?v0) ?v1) (f49 (f50 f51 ?v0) ?v1)))))
(assert (forall ((?v0 S3) (?v1 S5)) (=> (not (= (f3 ?v0 (f4 ?v1)) f1)) (= (f52 (f53 f70 ?v0) ?v1) (f52 (f53 f54 ?v0) ?v1)))))
(assert (forall ((?v0 S12) (?v1 S45)) (=> (not (= (f55 ?v0 (f56 ?v1)) f1)) (= (f57 (f58 f71 ?v0) ?v1) (f57 (f58 f59 ?v0) ?v1)))))
(assert (forall ((?v0 S16) (?v1 S15)) (let ((?v_0 (f23 f24 ?v0)) (?v_1 (f22 f72 ?v1))) (= (f22 f72 (f22 ?v_0 ?v1)) (ite (= (f20 ?v0 (f21 ?v1)) f1) ?v_1 (f22 ?v_0 ?v_1))))))
(assert (forall ((?v0 S20) (?v1 S21)) (let ((?v_0 (f28 f29 ?v0)) (?v_1 (f27 f73 ?v1))) (= (f27 f73 (f27 ?v_0 ?v1)) (ite (= (f25 ?v0 (f26 ?v1)) f1) ?v_1 (f27 ?v_0 ?v_1))))))
(assert (forall ((?v0 S15) (?v1 S25)) (let ((?v_0 (f33 f34 ?v0)) (?v_1 (f32 f74 ?v1))) (= (f32 f74 (f32 ?v_0 ?v1)) (ite (= (f30 ?v0 (f31 ?v1)) f1) ?v_1 (f32 ?v_0 ?v_1))))))
(assert (forall ((?v0 S2) (?v1 S7)) (let ((?v_0 (f10 f11 ?v0)) (?v_1 (f9 f75 ?v1))) (= (f9 f75 (f9 ?v_0 ?v1)) (ite (= (f35 ?v0 (f36 ?v1)) f1) ?v_1 (f9 ?v_0 ?v_1))))))
(assert (forall ((?v0 S30) (?v1 S20)) (let ((?v_0 (f40 f41 ?v0)) (?v_1 (f39 f76 ?v1))) (= (f39 f76 (f39 ?v_0 ?v1)) (ite (= (f37 ?v0 (f38 ?v1)) f1) ?v_1 (f39 ?v_0 ?v_1))))))
(assert (forall ((?v0 S34) (?v1 S30)) (let ((?v_0 (f45 f46 ?v0)) (?v_1 (f44 f77 ?v1))) (= (f44 f77 (f44 ?v_0 ?v1)) (ite (= (f42 ?v0 (f43 ?v1)) f1) ?v_1 (f44 ?v_0 ?v_1))))))
(assert (forall ((?v0 S38) (?v1 S39)) (let ((?v_0 (f50 f51 ?v0)) (?v_1 (f49 f78 ?v1))) (= (f49 f78 (f49 ?v_0 ?v1)) (ite (= (f47 ?v0 (f48 ?v1)) f1) ?v_1 (f49 ?v_0 ?v_1))))))
(assert (forall ((?v0 S3) (?v1 S5)) (let ((?v_0 (f53 f54 ?v0)) (?v_1 (f52 f79 ?v1))) (= (f52 f79 (f52 ?v_0 ?v1)) (ite (= (f3 ?v0 (f4 ?v1)) f1) ?v_1 (f52 ?v_0 ?v_1))))))
(assert (forall ((?v0 S12) (?v1 S45)) (let ((?v_0 (f58 f59 ?v0)) (?v_1 (f57 f80 ?v1))) (= (f57 f80 (f57 ?v_0 ?v1)) (ite (= (f55 ?v0 (f56 ?v1)) f1) ?v_1 (f57 ?v_0 ?v_1))))))
(assert (forall ((?v0 S5) (?v1 S7)) (=> (forall ((?v2 S3)) (=> (= (f3 ?v2 (f4 ?v0)) f1) (not (= (f60 f81 ?v2) f62)))) (= (exists ((?v2 S2)) (forall ((?v3 S3)) (=> (= (f3 ?v3 (f4 (f52 f82 ?v0))) f1) (= (f6 (f7 f8 ?v3) (f9 (f10 f11 ?v2) ?v1)) f1)))) (exists ((?v2 S2)) (forall ((?v3 S3)) (=> (= (f3 ?v3 (f4 ?v0)) f1) (= (f6 (f7 f8 ?v3) (f9 (f10 f11 ?v2) ?v1)) f1))))))))
(assert (= (f57 f80 f83) f83))
(assert (= (f52 f79 f84) f84))
(assert (= (f49 f78 f85) f85))
(assert (= (f9 f75 f86) f86))
(assert (= (f27 f73 f87) f87))
(assert (= (f32 f74 f88) f88))
(assert (= (f22 f72 f19) f19))
(assert (= (f44 f77 f89) f89))
(assert (= (f39 f76 f90) f90))
(assert (forall ((?v0 S45)) (let ((?v_0 (f57 f80 ?v0))) (= (f57 f80 ?v_0) ?v_0))))
(assert (forall ((?v0 S5)) (let ((?v_0 (f52 f79 ?v0))) (= (f52 f79 ?v_0) ?v_0))))
(assert (forall ((?v0 S20)) (let ((?v_0 (f39 f76 ?v0))) (= (f39 f76 ?v_0) ?v_0))))
(assert (forall ((?v0 S30)) (let ((?v_0 (f44 f77 ?v0))) (= (f44 f77 ?v_0) ?v_0))))
(assert (forall ((?v0 S15)) (let ((?v_0 (f22 f72 ?v0))) (= (f22 f72 ?v_0) ?v_0))))
(assert (forall ((?v0 S39)) (let ((?v_0 (f49 f78 ?v0))) (= (f49 f78 ?v_0) ?v_0))))
(assert (forall ((?v0 S7)) (let ((?v_0 (f9 f75 ?v0))) (= (f9 f75 ?v_0) ?v_0))))
(assert (forall ((?v0 S45)) (= (= f83 (f57 f80 ?v0)) (= ?v0 f83))))
(assert (forall ((?v0 S5)) (= (= f84 (f52 f79 ?v0)) (= ?v0 f84))))
(assert (forall ((?v0 S39)) (= (= f85 (f49 f78 ?v0)) (= ?v0 f85))))
(assert (forall ((?v0 S7)) (= (= f86 (f9 f75 ?v0)) (= ?v0 f86))))
(assert (forall ((?v0 S21)) (= (= f87 (f27 f73 ?v0)) (= ?v0 f87))))
(assert (forall ((?v0 S25)) (= (= f88 (f32 f74 ?v0)) (= ?v0 f88))))
(assert (forall ((?v0 S15)) (= (= f19 (f22 f72 ?v0)) (= ?v0 f19))))
(assert (forall ((?v0 S30)) (= (= f89 (f44 f77 ?v0)) (= ?v0 f89))))
(assert (forall ((?v0 S20)) (= (= f90 (f39 f76 ?v0)) (= ?v0 f90))))
(assert (forall ((?v0 S12)) (= (f57 (f58 f71 ?v0) f83) (f57 (f58 f59 ?v0) f83))))
(assert (forall ((?v0 S3)) (= (f52 (f53 f70 ?v0) f84) (f52 (f53 f54 ?v0) f84))))
(assert (forall ((?v0 S38)) (= (f49 (f50 f69 ?v0) f85) (f49 (f50 f51 ?v0) f85))))
(assert (forall ((?v0 S20)) (= (f27 (f28 f64 ?v0) f87) (f27 (f28 f29 ?v0) f87))))
(assert (forall ((?v0 S15)) (= (f32 (f33 f65 ?v0) f88) (f32 (f33 f34 ?v0) f88))))
(assert (forall ((?v0 S2)) (= (f9 (f10 f66 ?v0) f86) (f9 (f10 f11 ?v0) f86))))
(assert (forall ((?v0 S16)) (= (f22 (f23 f63 ?v0) f19) (f22 (f23 f24 ?v0) f19))))
(assert (forall ((?v0 S34)) (= (f44 (f45 f68 ?v0) f89) (f44 (f45 f46 ?v0) f89))))
(assert (forall ((?v0 S30)) (= (f39 (f40 f67 ?v0) f90) (f39 (f40 f41 ?v0) f90))))
(assert (forall ((?v0 S12) (?v1 S45)) (let ((?v_0 (f58 f71 ?v0))) (= (f57 ?v_0 (f57 f80 ?v1)) (f57 f80 (f57 ?v_0 ?v1))))))
(assert (forall ((?v0 S3) (?v1 S5)) (let ((?v_0 (f53 f70 ?v0))) (= (f52 ?v_0 (f52 f79 ?v1)) (f52 f79 (f52 ?v_0 ?v1))))))
(assert (forall ((?v0 S38) (?v1 S39)) (let ((?v_0 (f50 f69 ?v0))) (= (f49 ?v_0 (f49 f78 ?v1)) (f49 f78 (f49 ?v_0 ?v1))))))
(assert (forall ((?v0 S30) (?v1 S20)) (let ((?v_0 (f40 f67 ?v0))) (= (f39 ?v_0 (f39 f76 ?v1)) (f39 f76 (f39 ?v_0 ?v1))))))
(assert (forall ((?v0 S34) (?v1 S30)) (let ((?v_0 (f45 f68 ?v0))) (= (f44 ?v_0 (f44 f77 ?v1)) (f44 f77 (f44 ?v_0 ?v1))))))
(assert (forall ((?v0 S16) (?v1 S15)) (let ((?v_0 (f23 f63 ?v0))) (= (f22 ?v_0 (f22 f72 ?v1)) (f22 f72 (f22 ?v_0 ?v1))))))
(assert (forall ((?v0 S2) (?v1 S7)) (let ((?v_0 (f10 f66 ?v0))) (= (f9 ?v_0 (f9 f75 ?v1)) (f9 f75 (f9 ?v_0 ?v1))))))
(assert (forall ((?v0 S45)) (= (= (f57 f80 ?v0) f83) (= ?v0 f83))))
(assert (forall ((?v0 S5)) (= (= (f52 f79 ?v0) f84) (= ?v0 f84))))
(assert (forall ((?v0 S39)) (= (= (f49 f78 ?v0) f85) (= ?v0 f85))))
(assert (forall ((?v0 S7)) (= (= (f9 f75 ?v0) f86) (= ?v0 f86))))
(assert (forall ((?v0 S21)) (= (= (f27 f73 ?v0) f87) (= ?v0 f87))))
(assert (forall ((?v0 S25)) (= (= (f32 f74 ?v0) f88) (= ?v0 f88))))
(assert (forall ((?v0 S15)) (= (= (f22 f72 ?v0) f19) (= ?v0 f19))))
(assert (forall ((?v0 S30)) (= (= (f44 f77 ?v0) f89) (= ?v0 f89))))
(assert (forall ((?v0 S20)) (= (= (f39 f76 ?v0) f90) (= ?v0 f90))))
(assert (forall ((?v0 S20) (?v1 S21)) (not (= (f27 (f28 f29 ?v0) ?v1) f87))))
(assert (forall ((?v0 S15) (?v1 S25)) (not (= (f32 (f33 f34 ?v0) ?v1) f88))))
(assert (forall ((?v0 S12) (?v1 S45)) (not (= (f57 (f58 f59 ?v0) ?v1) f83))))
(assert (forall ((?v0 S3) (?v1 S5)) (not (= (f52 (f53 f54 ?v0) ?v1) f84))))
(assert (forall ((?v0 S38) (?v1 S39)) (not (= (f49 (f50 f51 ?v0) ?v1) f85))))
(assert (forall ((?v0 S2) (?v1 S7)) (not (= (f9 (f10 f11 ?v0) ?v1) f86))))
(assert (forall ((?v0 S16) (?v1 S15)) (not (= (f22 (f23 f24 ?v0) ?v1) f19))))
(assert (forall ((?v0 S34) (?v1 S30)) (not (= (f44 (f45 f46 ?v0) ?v1) f89))))
(assert (forall ((?v0 S30) (?v1 S20)) (not (= (f39 (f40 f41 ?v0) ?v1) f90))))
(assert (forall ((?v0 S20) (?v1 S21)) (not (= f87 (f27 (f28 f29 ?v0) ?v1)))))
(assert (forall ((?v0 S15) (?v1 S25)) (not (= f88 (f32 (f33 f34 ?v0) ?v1)))))
(assert (forall ((?v0 S12) (?v1 S45)) (not (= f83 (f57 (f58 f59 ?v0) ?v1)))))
(assert (forall ((?v0 S3) (?v1 S5)) (not (= f84 (f52 (f53 f54 ?v0) ?v1)))))
(assert (forall ((?v0 S38) (?v1 S39)) (not (= f85 (f49 (f50 f51 ?v0) ?v1)))))
(assert (forall ((?v0 S2) (?v1 S7)) (not (= f86 (f9 (f10 f11 ?v0) ?v1)))))
(assert (forall ((?v0 S16) (?v1 S15)) (not (= f19 (f22 (f23 f24 ?v0) ?v1)))))
(assert (forall ((?v0 S34) (?v1 S30)) (not (= f89 (f44 (f45 f46 ?v0) ?v1)))))
(assert (forall ((?v0 S30) (?v1 S20)) (not (= f90 (f39 (f40 f41 ?v0) ?v1)))))
(assert (forall ((?v0 S39)) (= (f48 (f49 f78 ?v0)) (f48 ?v0))))
(assert (forall ((?v0 S20)) (= (f38 (f39 f76 ?v0)) (f38 ?v0))))
(assert (forall ((?v0 S30)) (= (f43 (f44 f77 ?v0)) (f43 ?v0))))
(assert (forall ((?v0 S15)) (= (f21 (f22 f72 ?v0)) (f21 ?v0))))
(assert (forall ((?v0 S7)) (= (f36 (f9 f75 ?v0)) (f36 ?v0))))
(assert (forall ((?v0 S5)) (= (f4 (f52 f79 ?v0)) (f4 ?v0))))
(assert (forall ((?v0 S45)) (= (f56 (f57 f80 ?v0)) (f56 ?v0))))
(assert (forall ((?v0 S30) (?v1 S20)) (=> (= (f37 ?v0 (f38 ?v1)) f1) (= (f39 (f40 f67 ?v0) ?v1) ?v1))))
(assert (forall ((?v0 S34) (?v1 S30)) (=> (= (f42 ?v0 (f43 ?v1)) f1) (= (f44 (f45 f68 ?v0) ?v1) ?v1))))
(assert (forall ((?v0 S16) (?v1 S15)) (=> (= (f20 ?v0 (f21 ?v1)) f1) (= (f22 (f23 f63 ?v0) ?v1) ?v1))))
(assert (forall ((?v0 S2) (?v1 S7)) (=> (= (f35 ?v0 (f36 ?v1)) f1) (= (f9 (f10 f66 ?v0) ?v1) ?v1))))
(assert (forall ((?v0 S38) (?v1 S39)) (=> (= (f47 ?v0 (f48 ?v1)) f1) (= (f49 (f50 f69 ?v0) ?v1) ?v1))))
(assert (forall ((?v0 S3) (?v1 S5)) (=> (= (f3 ?v0 (f4 ?v1)) f1) (= (f52 (f53 f70 ?v0) ?v1) ?v1))))
(assert (forall ((?v0 S12) (?v1 S45)) (=> (= (f55 ?v0 (f56 ?v1)) f1) (= (f57 (f58 f71 ?v0) ?v1) ?v1))))
(assert (forall ((?v0 S21)) (=> (=> (= ?v0 f87) false) (=> (forall ((?v1 S20) (?v2 S21)) (=> (= ?v0 (f27 (f28 f29 ?v1) ?v2)) false)) false))))
(assert (forall ((?v0 S25)) (=> (=> (= ?v0 f88) false) (=> (forall ((?v1 S15) (?v2 S25)) (=> (= ?v0 (f32 (f33 f34 ?v1) ?v2)) false)) false))))
(assert (forall ((?v0 S45)) (=> (=> (= ?v0 f83) false) (=> (forall ((?v1 S12) (?v2 S45)) (=> (= ?v0 (f57 (f58 f59 ?v1) ?v2)) false)) false))))
(assert (forall ((?v0 S5)) (=> (=> (= ?v0 f84) false) (=> (forall ((?v1 S3) (?v2 S5)) (=> (= ?v0 (f52 (f53 f54 ?v1) ?v2)) false)) false))))
(assert (forall ((?v0 S39)) (=> (=> (= ?v0 f85) false) (=> (forall ((?v1 S38) (?v2 S39)) (=> (= ?v0 (f49 (f50 f51 ?v1) ?v2)) false)) false))))
(assert (forall ((?v0 S7)) (=> (=> (= ?v0 f86) false) (=> (forall ((?v1 S2) (?v2 S7)) (=> (= ?v0 (f9 (f10 f11 ?v1) ?v2)) false)) false))))
(assert (forall ((?v0 S15)) (=> (=> (= ?v0 f19) false) (=> (forall ((?v1 S16) (?v2 S15)) (=> (= ?v0 (f22 (f23 f24 ?v1) ?v2)) false)) false))))
(assert (forall ((?v0 S30)) (=> (=> (= ?v0 f89) false) (=> (forall ((?v1 S34) (?v2 S30)) (=> (= ?v0 (f44 (f45 f46 ?v1) ?v2)) false)) false))))
(assert (forall ((?v0 S20)) (=> (=> (= ?v0 f90) false) (=> (forall ((?v1 S30) (?v2 S20)) (=> (= ?v0 (f39 (f40 f41 ?v1) ?v2)) false)) false))))
(assert (forall ((?v0 S21)) (= (not (= ?v0 f87)) (exists ((?v1 S20) (?v2 S21)) (= ?v0 (f27 (f28 f29 ?v1) ?v2))))))
(assert (forall ((?v0 S25)) (= (not (= ?v0 f88)) (exists ((?v1 S15) (?v2 S25)) (= ?v0 (f32 (f33 f34 ?v1) ?v2))))))
(assert (forall ((?v0 S45)) (= (not (= ?v0 f83)) (exists ((?v1 S12) (?v2 S45)) (= ?v0 (f57 (f58 f59 ?v1) ?v2))))))
(assert (forall ((?v0 S5)) (= (not (= ?v0 f84)) (exists ((?v1 S3) (?v2 S5)) (= ?v0 (f52 (f53 f54 ?v1) ?v2))))))
(assert (forall ((?v0 S39)) (= (not (= ?v0 f85)) (exists ((?v1 S38) (?v2 S39)) (= ?v0 (f49 (f50 f51 ?v1) ?v2))))))
(assert (forall ((?v0 S7)) (= (not (= ?v0 f86)) (exists ((?v1 S2) (?v2 S7)) (= ?v0 (f9 (f10 f11 ?v1) ?v2))))))
(assert (forall ((?v0 S15)) (= (not (= ?v0 f19)) (exists ((?v1 S16) (?v2 S15)) (= ?v0 (f22 (f23 f24 ?v1) ?v2))))))
(assert (forall ((?v0 S30)) (= (not (= ?v0 f89)) (exists ((?v1 S34) (?v2 S30)) (= ?v0 (f44 (f45 f46 ?v1) ?v2))))))
(assert (forall ((?v0 S20)) (= (not (= ?v0 f90)) (exists ((?v1 S30) (?v2 S20)) (= ?v0 (f39 (f40 f41 ?v1) ?v2))))))
(assert (forall ((?v0 S20) (?v1 S21)) (let ((?v_0 (f27 (f28 f29 ?v0) ?v1))) (= (f27 (f91 f92 ?v_0) f87) ?v_0))))
(assert (forall ((?v0 S15) (?v1 S25)) (let ((?v_0 (f32 (f33 f34 ?v0) ?v1))) (= (f32 (f93 f94 ?v_0) f88) ?v_0))))
(assert (forall ((?v0 S12) (?v1 S45)) (let ((?v_0 (f57 (f58 f59 ?v0) ?v1))) (= (f57 (f95 f96 ?v_0) f83) ?v_0))))
(assert (forall ((?v0 S3) (?v1 S5)) (let ((?v_0 (f52 (f53 f54 ?v0) ?v1))) (= (f52 (f97 f98 ?v_0) f84) ?v_0))))
(assert (forall ((?v0 S38) (?v1 S39)) (let ((?v_0 (f49 (f50 f51 ?v0) ?v1))) (= (f49 (f99 f100 ?v_0) f85) ?v_0))))
(assert (forall ((?v0 S2) (?v1 S7)) (let ((?v_0 (f9 (f10 f11 ?v0) ?v1))) (= (f9 (f101 f102 ?v_0) f86) ?v_0))))
(assert (forall ((?v0 S16) (?v1 S15)) (let ((?v_0 (f22 (f23 f24 ?v0) ?v1))) (= (f22 (f103 f104 ?v_0) f19) ?v_0))))
(assert (forall ((?v0 S34) (?v1 S30)) (let ((?v_0 (f44 (f45 f46 ?v0) ?v1))) (= (f44 (f105 f106 ?v_0) f89) ?v_0))))
(assert (forall ((?v0 S30) (?v1 S20)) (let ((?v_0 (f39 (f40 f41 ?v0) ?v1))) (= (f39 (f107 f108 ?v_0) f90) ?v_0))))
(assert (forall ((?v0 S21) (?v1 S59)) (=> (not (= ?v0 f87)) (=> (forall ((?v2 S20)) (= (f109 ?v1 (f27 (f28 f29 ?v2) f87)) f1)) (=> (forall ((?v2 S20) (?v3 S21)) (=> (not (= ?v3 f87)) (=> (= (f109 ?v1 ?v3) f1) (= (f109 ?v1 (f27 (f28 f29 ?v2) ?v3)) f1)))) (= (f109 ?v1 ?v0) f1))))))
(assert (forall ((?v0 S25) (?v1 S60)) (=> (not (= ?v0 f88)) (=> (forall ((?v2 S15)) (= (f110 ?v1 (f32 (f33 f34 ?v2) f88)) f1)) (=> (forall ((?v2 S15) (?v3 S25)) (=> (not (= ?v3 f88)) (=> (= (f110 ?v1 ?v3) f1) (= (f110 ?v1 (f32 (f33 f34 ?v2) ?v3)) f1)))) (= (f110 ?v1 ?v0) f1))))))
(assert (forall ((?v0 S45) (?v1 S61)) (=> (not (= ?v0 f83)) (=> (forall ((?v2 S12)) (= (f111 ?v1 (f57 (f58 f59 ?v2) f83)) f1)) (=> (forall ((?v2 S12) (?v3 S45)) (=> (not (= ?v3 f83)) (=> (= (f111 ?v1 ?v3) f1) (= (f111 ?v1 (f57 (f58 f59 ?v2) ?v3)) f1)))) (= (f111 ?v1 ?v0) f1))))))
(assert (forall ((?v0 S5) (?v1 S62)) (=> (not (= ?v0 f84)) (=> (forall ((?v2 S3)) (= (f112 ?v1 (f52 (f53 f54 ?v2) f84)) f1)) (=> (forall ((?v2 S3) (?v3 S5)) (=> (not (= ?v3 f84)) (=> (= (f112 ?v1 ?v3) f1) (= (f112 ?v1 (f52 (f53 f54 ?v2) ?v3)) f1)))) (= (f112 ?v1 ?v0) f1))))))
(assert (forall ((?v0 S39) (?v1 S63)) (=> (not (= ?v0 f85)) (=> (forall ((?v2 S38)) (= (f113 ?v1 (f49 (f50 f51 ?v2) f85)) f1)) (=> (forall ((?v2 S38) (?v3 S39)) (=> (not (= ?v3 f85)) (=> (= (f113 ?v1 ?v3) f1) (= (f113 ?v1 (f49 (f50 f51 ?v2) ?v3)) f1)))) (= (f113 ?v1 ?v0) f1))))))
(assert (forall ((?v0 S7) (?v1 S6)) (=> (not (= ?v0 f86)) (=> (forall ((?v2 S2)) (= (f6 ?v1 (f9 (f10 f11 ?v2) f86)) f1)) (=> (forall ((?v2 S2) (?v3 S7)) (=> (not (= ?v3 f86)) (=> (= (f6 ?v1 ?v3) f1) (= (f6 ?v1 (f9 (f10 f11 ?v2) ?v3)) f1)))) (= (f6 ?v1 ?v0) f1))))))
(assert (forall ((?v0 S15) (?v1 S26)) (=> (not (= ?v0 f19)) (=> (forall ((?v2 S16)) (= (f114 ?v1 (f22 (f23 f24 ?v2) f19)) f1)) (=> (forall ((?v2 S16) (?v3 S15)) (=> (not (= ?v3 f19)) (=> (= (f114 ?v1 ?v3) f1) (= (f114 ?v1 (f22 (f23 f24 ?v2) ?v3)) f1)))) (= (f114 ?v1 ?v0) f1))))))
(assert (forall ((?v0 S30) (?v1 S31)) (=> (not (= ?v0 f89)) (=> (forall ((?v2 S34)) (= (f115 ?v1 (f44 (f45 f46 ?v2) f89)) f1)) (=> (forall ((?v2 S34) (?v3 S30)) (=> (not (= ?v3 f89)) (=> (= (f115 ?v1 ?v3) f1) (= (f115 ?v1 (f44 (f45 f46 ?v2) ?v3)) f1)))) (= (f115 ?v1 ?v0) f1))))))
(assert (forall ((?v0 S20) (?v1 S22)) (=> (not (= ?v0 f90)) (=> (forall ((?v2 S30)) (= (f116 ?v1 (f39 (f40 f41 ?v2) f90)) f1)) (=> (forall ((?v2 S30) (?v3 S20)) (=> (not (= ?v3 f90)) (=> (= (f116 ?v1 ?v3) f1) (= (f116 ?v1 (f39 (f40 f41 ?v2) ?v3)) f1)))) (= (f116 ?v1 ?v0) f1))))))
(assert (forall ((?v0 S3) (?v1 S2) (?v2 S7)) (=> (not (not (= (f60 f81 ?v0) f62))) (= (= (f6 (f7 f8 ?v0) (f9 (f10 f11 ?v1) ?v2)) f1) (= (f6 (f7 f8 (f117 f118 ?v0)) ?v2) f1)))))
(assert (forall ((?v0 S2)) (= (= f62 ?v0) (= ?v0 f62))))
(assert (forall ((?v0 S38)) (= (= f119 ?v0) (= ?v0 f119))))
(assert (= (= (f120 f86) f1) true))
(assert (= (= (f121 f87) f1) true))
(assert (= (= (f122 f88) f1) true))
(assert (= (= (f123 f83) f1) true))
(assert (= (= (f124 f84) f1) true))
(assert (= (= (f125 f85) f1) true))
(assert (= (= (f126 f19) f1) true))
(assert (= (= (f127 f89) f1) true))
(assert (= (= (f128 f90) f1) true))
(assert (forall ((?v0 S7)) (= (= (f120 ?v0) f1) (= ?v0 f86))))
(assert (forall ((?v0 S21)) (= (= (f121 ?v0) f1) (= ?v0 f87))))
(assert (forall ((?v0 S25)) (= (= (f122 ?v0) f1) (= ?v0 f88))))
(assert (forall ((?v0 S45)) (= (= (f123 ?v0) f1) (= ?v0 f83))))
(assert (forall ((?v0 S5)) (= (= (f124 ?v0) f1) (= ?v0 f84))))
(assert (forall ((?v0 S39)) (= (= (f125 ?v0) f1) (= ?v0 f85))))
(assert (forall ((?v0 S15)) (= (= (f126 ?v0) f1) (= ?v0 f19))))
(assert (forall ((?v0 S30)) (= (= (f127 ?v0) f1) (= ?v0 f89))))
(assert (forall ((?v0 S20)) (= (= (f128 ?v0) f1) (= ?v0 f90))))
(assert (forall ((?v0 S45)) (= (= ?v0 f83) (= (f123 ?v0) f1))))
(assert (forall ((?v0 S5)) (= (= ?v0 f84) (= (f124 ?v0) f1))))
(assert (forall ((?v0 S39)) (= (= ?v0 f85) (= (f125 ?v0) f1))))
(assert (forall ((?v0 S15)) (= (= ?v0 f19) (= (f126 ?v0) f1))))
(assert (forall ((?v0 S30)) (= (= ?v0 f89) (= (f127 ?v0) f1))))
(assert (forall ((?v0 S20)) (= (= ?v0 f90) (= (f128 ?v0) f1))))
(assert (forall ((?v0 S34) (?v1 S30) (?v2 S34) (?v3 S30)) (let ((?v_0 (f45 f46 ?v0)) (?v_1 (f45 f46 ?v2))) (= (f44 (f105 f106 (f44 ?v_0 ?v1)) (f44 ?v_1 ?v3)) (f44 ?v_0 (f44 ?v_1 (f44 (f105 f106 ?v1) ?v3)))))))
(assert (forall ((?v0 S30) (?v1 S20) (?v2 S30) (?v3 S20)) (let ((?v_0 (f40 f41 ?v0)) (?v_1 (f40 f41 ?v2))) (= (f39 (f107 f108 (f39 ?v_0 ?v1)) (f39 ?v_1 ?v3)) (f39 ?v_0 (f39 ?v_1 (f39 (f107 f108 ?v1) ?v3)))))))
(assert (forall ((?v0 S2) (?v1 S7) (?v2 S2) (?v3 S7)) (let ((?v_0 (f10 f11 ?v0)) (?v_1 (f10 f11 ?v2))) (= (f9 (f101 f102 (f9 ?v_0 ?v1)) (f9 ?v_1 ?v3)) (f9 ?v_0 (f9 ?v_1 (f9 (f101 f102 ?v1) ?v3)))))))
(assert (forall ((?v0 S20)) (= (f39 (f107 f108 ?v0) f90) ?v0)))
(assert (forall ((?v0 S30)) (= (f44 (f105 f106 ?v0) f89) ?v0)))
(assert (forall ((?v0 S15)) (= (f22 (f103 f104 ?v0) f19) ?v0)))
(assert (forall ((?v0 S20)) (= (f39 (f107 f108 f90) ?v0) ?v0)))
(assert (forall ((?v0 S30)) (= (f44 (f105 f106 f89) ?v0) ?v0)))
(assert (forall ((?v0 S15)) (= (f22 (f103 f104 f19) ?v0) ?v0)))
(assert (forall ((?v0 S3)) (=> (not (not (= (f60 f81 ?v0) f62))) (=> (not (= (f60 f61 ?v0) f62)) (not (= (f60 f61 (f117 f118 ?v0)) f62))))))
(assert (forall ((?v0 S34) (?v1 S30)) (= (= (f127 (f44 (f45 f46 ?v0) ?v1)) f1) false)))
(assert (forall ((?v0 S30) (?v1 S20)) (= (= (f128 (f39 (f40 f41 ?v0) ?v1)) f1) false)))
(assert (forall ((?v0 S2) (?v1 S7)) (= (= (f120 (f9 (f10 f11 ?v0) ?v1)) f1) false)))
(assert (forall ((?v0 S45) (?v1 S7)) (= (= (f6 (f13 (f14 f8) (f129 f130 ?v0)) ?v1) f1) (forall ((?v2 S12)) (=> (= (f55 ?v2 (f56 ?v0)) f1) (= (f6 (f13 (f14 f8) ?v2) ?v1) f1))))))
(assert (forall ((?v0 S20)) (= (= (f116 (f131 ?v0) f90) f1) (= (f128 ?v0) f1))))
(assert (forall ((?v0 S30)) (= (= (f115 (f132 ?v0) f89) f1) (= (f127 ?v0) f1))))
(assert (forall ((?v0 S15)) (= (= (f114 (f133 ?v0) f19) f1) (= (f126 ?v0) f1))))
(assert (forall ((?v0 S45) (?v1 S7)) (= (= (f6 (f13 (f14 f8) (f129 f134 ?v0)) ?v1) f1) (exists ((?v2 S12)) (and (= (f55 ?v2 (f56 ?v0)) f1) (= (f6 (f13 (f14 f8) ?v2) ?v1) f1))))))
(assert (forall ((?v0 S30) (?v1 S40)) (let ((?v_0 (f39 (f40 f41 ?v0) f90))) (= (f135 (f136 f137 ?v_0) ?v1) (ite (= (f47 f119 ?v1) f1) ?v_0 f90)))))
(assert (forall ((?v0 S34) (?v1 S40)) (let ((?v_0 (f44 (f45 f46 ?v0) f89))) (= (f138 (f139 f140 ?v_0) ?v1) (ite (= (f47 f119 ?v1) f1) ?v_0 f89)))))
(assert (forall ((?v0 S16) (?v1 S40)) (let ((?v_0 (f22 (f23 f24 ?v0) f19))) (= (f141 (f142 f143 ?v_0) ?v1) (ite (= (f47 f119 ?v1) f1) ?v_0 f19)))))
(assert (forall ((?v0 S2) (?v1 S40)) (let ((?v_0 (f9 (f10 f11 ?v0) f86))) (= (f144 (f145 f146 ?v_0) ?v1) (ite (= (f47 f119 ?v1) f1) ?v_0 f86)))))
(assert (forall ((?v0 S74)) (= (f147 (f148 f149 f86) ?v0) f19)))
(assert (forall ((?v0 S45)) (=> (not (= ?v0 f83)) (= (f55 (f129 f150 ?v0) (f56 ?v0)) f1))))
(assert (forall ((?v0 S5)) (=> (not (= ?v0 f84)) (= (f3 (f151 f152 ?v0) (f4 ?v0)) f1))))
(assert (forall ((?v0 S39)) (=> (not (= ?v0 f85)) (= (f47 (f153 f154 ?v0) (f48 ?v0)) f1))))
(assert (forall ((?v0 S20)) (=> (not (= ?v0 f90)) (= (f37 (f155 f156 ?v0) (f38 ?v0)) f1))))
(assert (forall ((?v0 S30)) (=> (not (= ?v0 f89)) (= (f42 (f157 f158 ?v0) (f43 ?v0)) f1))))
(assert (forall ((?v0 S15)) (=> (not (= ?v0 f19)) (= (f20 (f159 f160 ?v0) (f21 ?v0)) f1))))
(assert (forall ((?v0 S34) (?v1 S30)) (= (f157 f158 (f44 (f45 f46 ?v0) ?v1)) ?v0)))
(assert (forall ((?v0 S30) (?v1 S20)) (= (f155 f156 (f39 (f40 f41 ?v0) ?v1)) ?v0)))
(assert (forall ((?v0 S2) (?v1 S7)) (= (f161 f162 (f9 (f10 f11 ?v0) ?v1)) ?v0)))
(assert (forall ((?v0 S12) (?v1 S45) (?v2 S40)) (=> (= (f55 ?v0 (f56 (f163 (f164 f165 ?v1) ?v2))) f1) (= (f55 ?v0 (f56 ?v1)) f1))))
(assert (forall ((?v0 S3) (?v1 S5) (?v2 S40)) (=> (= (f3 ?v0 (f4 (f166 (f167 f168 ?v1) ?v2))) f1) (= (f3 ?v0 (f4 ?v1)) f1))))
(assert (forall ((?v0 S38) (?v1 S39) (?v2 S40)) (=> (= (f47 ?v0 (f48 (f169 (f170 f171 ?v1) ?v2))) f1) (= (f47 ?v0 (f48 ?v1)) f1))))
(assert (forall ((?v0 S12) (?v1 S45) (?v2 S40)) (=> (not (= (f55 ?v0 (f56 ?v1)) f1)) (not (= (f55 ?v0 (f56 (f163 (f164 f165 ?v1) ?v2))) f1)))))
(assert (forall ((?v0 S3) (?v1 S5) (?v2 S40)) (=> (not (= (f3 ?v0 (f4 ?v1)) f1)) (not (= (f3 ?v0 (f4 (f166 (f167 f168 ?v1) ?v2))) f1)))))
(assert (forall ((?v0 S38) (?v1 S39) (?v2 S40)) (=> (not (= (f47 ?v0 (f48 ?v1)) f1)) (not (= (f47 ?v0 (f48 (f169 (f170 f171 ?v1) ?v2))) f1)))))
(assert (forall ((?v0 S40)) (= (f135 (f136 f137 f90) ?v0) f90)))
(assert (forall ((?v0 S40)) (= (f138 (f139 f140 f89) ?v0) f89)))
(assert (forall ((?v0 S40)) (= (f141 (f142 f143 f19) ?v0) f19)))
(assert (forall ((?v0 S89)) (= (f174 (f172 f173 ?v0) f90) f119)))
(assert (forall ((?v0 S92)) (= (f177 (f175 f176 ?v0) f89) f119)))
(assert (forall ((?v0 S94)) (= (f180 (f178 f179 ?v0) f19) f119)))
(assert (forall ((?v0 S38)) (= (f183 (f181 f182 ?v0) f89) (ite (= ?v0 f119) (f39 (f40 f41 f89) f90) f90))))
(assert (forall ((?v0 S38)) (= (f186 (f184 f185 ?v0) f90) (ite (= ?v0 f119) (f27 (f28 f29 f90) f87) f87))))
(assert (forall ((?v0 S38)) (= (f189 (f187 f188 ?v0) f19) (ite (= ?v0 f119) (f32 (f33 f34 f19) f88) f88))))
(assert (forall ((?v0 S30)) (= (f183 (f181 f182 f119) ?v0) (f39 (f40 f41 f89) f90))))
(assert (forall ((?v0 S20)) (= (f186 (f184 f185 f119) ?v0) (f27 (f28 f29 f90) f87))))
(assert (forall ((?v0 S15)) (= (f189 (f187 f188 f119) ?v0) (f32 (f33 f34 f19) f88))))
(assert (forall ((?v0 S7)) (= (f161 (f190 f191 f86) ?v0) f62)))
(check-sat)
(exit)
